1230
0	21	150	166	218	280	318	393	425	480
0	98	129	227	306	318	384	426	503	580
0	129	218	280	301	425	504	580	634	771
21	108	193	280	318	342	425	466	575	729
0	98	227	252	384	427	476	610	687	704
314	349	425	504	572	634	717	812	847	854
34	349	408	476	567	610	660	712	789	817
108	153	240	281	327	514	569	652	661	700
55	408	503	661	704	771	779	807	896	938
0	69	445	633	730	812	949	994	1072	1146
